p cnf 995
-16 -310
-17 -313
-18 -316
-19 -319
-20 -322
-21 -325
-22 -328
-23 -331
-24 -334
-25 -337
-26 -340
-27 -343
-28 -346
-29 -349
-30 -352
-31 353
-32 354
-33 355
-34 356
-35 357
-36 358
-37 359
-38 -17
-38 -18
17 18 38
-39 -19
-39 -20
19 20 39
-40 -21
-40 -22
21 22 40
-41 -23
-41 -24
23 24 41
-42 -25
-42 -26
25 26 42
-43 -27
-43 -28
27 28 43
-44 -29
-44 -30
29 30 44
-45 -31
-45 -32
31 32 45
-46 -33
-46 -34
33 34 46
-47 -35
-47 -36
35 36 47
-48 38
-48 39
-38 -39 48
-49 40
-49 41
-40 -41 49
-50 42
-50 43
-42 -43 50
-51 44
-51 45
-44 -45 51
-52 46
-52 47
-46 -47 52
-53 48
-53 49
-48 -49 53
-54 50
-54 51
-50 -51 54
-55 -37
-55 52
37 -52 55
-56 53
-56 54
-53 -54 56
-57 55
-57 56
-55 -56 57
-58 -16
-58 17
16 -17 58
-59 16
-59 -17
-16 17 59
-60 -58
-60 -59
58 59 60
-61 16
-61 17
-16 -17 61
-62 -16
-62 -60
16 60 62
-63 16
-63 60
-16 -60 63
-64 -62
-64 -63
62 63 64
-65 16
-65 -60
-16 60 65
-66 -61
-66 -65
61 65 66
-67 -17
-67 18
17 -18 67
-68 17
-68 -18
-17 18 68
-69 -67
-69 -68
67 68 69
-70 17
-70 18
-17 -18 70
-71 66
-71 -69
-66 69 71
-72 -66
-72 69
66 -69 72
-73 -71
-73 -72
71 72 73
-74 -66
-74 -69
66 69 74
-75 -70
-75 -74
70 74 75
-76 -18
-76 19
18 -19 76
-77 18
-77 -19
-18 19 77
-78 -76
-78 -77
76 77 78
-79 18
-79 19
-18 -19 79
-80 75
-80 -78
-75 78 80
-81 -75
-81 78
75 -78 81
-82 -80
-82 -81
80 81 82
-83 -75
-83 -78
75 78 83
-84 -79
-84 -83
79 83 84
-85 -19
-85 20
19 -20 85
-86 19
-86 -20
-19 20 86
-87 -85
-87 -86
85 86 87
-88 19
-88 20
-19 -20 88
-89 84
-89 -87
-84 87 89
-90 -84
-90 87
84 -87 90
-91 -89
-91 -90
89 90 91
-92 -84
-92 -87
84 87 92
-93 -88
-93 -92
88 92 93
-94 -20
-94 21
20 -21 94
-95 20
-95 -21
-20 21 95
-96 -94
-96 -95
94 95 96
-97 20
-97 21
-20 -21 97
-98 93
-98 -96
-93 96 98
-99 -93
-99 96
93 -96 99
-100 -98
-100 -99
98 99 100
-101 -93
-101 -96
93 96 101
-102 -97
-102 -101
97 101 102
-103 -21
-103 22
21 -22 103
-104 21
-104 -22
-21 22 104
-105 -103
-105 -104
103 104 105
-106 21
-106 22
-21 -22 106
-107 102
-107 -105
-102 105 107
-108 -102
-108 105
102 -105 108
-109 -107
-109 -108
107 108 109
-110 -102
-110 -105
102 105 110
-111 -106
-111 -110
106 110 111
-112 -22
-112 23
22 -23 112
-113 22
-113 -23
-22 23 113
-114 -112
-114 -113
112 113 114
-115 22
-115 23
-22 -23 115
-116 111
-116 -114
-111 114 116
-117 -111
-117 114
111 -114 117
-118 -116
-118 -117
116 117 118
-119 -111
-119 -114
111 114 119
-120 -115
-120 -119
115 119 120
-121 -23
-121 24
23 -24 121
-122 23
-122 -24
-23 24 122
-123 -121
-123 -122
121 122 123
-124 23
-124 24
-23 -24 124
-125 120
-125 -123
-120 123 125
-126 -120
-126 123
120 -123 126
-127 -125
-127 -126
125 126 127
-128 -120
-128 -123
120 123 128
-129 -124
-129 -128
124 128 129
-130 -24
-130 25
24 -25 130
-131 24
-131 -25
-24 25 131
-132 -130
-132 -131
130 131 132
-133 24
-133 25
-24 -25 133
-134 129
-134 -132
-129 132 134
-135 -129
-135 132
129 -132 135
-136 -134
-136 -135
134 135 136
-137 -129
-137 -132
129 132 137
-138 -133
-138 -137
133 137 138
-139 -25
-139 26
25 -26 139
-140 25
-140 -26
-25 26 140
-141 -139
-141 -140
139 140 141
-142 25
-142 26
-25 -26 142
-143 138
-143 -141
-138 141 143
-144 -138
-144 141
138 -141 144
-145 -143
-145 -144
143 144 145
-146 -138
-146 -141
138 141 146
-147 -142
-147 -146
142 146 147
-148 -26
-148 27
26 -27 148
-149 26
-149 -27
-26 27 149
-150 -148
-150 -149
148 149 150
-151 26
-151 27
-26 -27 151
-152 147
-152 -150
-147 150 152
-153 -147
-153 150
147 -150 153
-154 -152
-154 -153
152 153 154
-155 -147
-155 -150
147 150 155
-156 -151
-156 -155
151 155 156
-157 -27
-157 28
27 -28 157
-158 27
-158 -28
-27 28 158
-159 -157
-159 -158
157 158 159
-160 27
-160 28
-27 -28 160
-161 156
-161 -159
-156 159 161
-162 -156
-162 159
156 -159 162
-163 -161
-163 -162
161 162 163
-164 -156
-164 -159
156 159 164
-165 -160
-165 -164
160 164 165
-166 -28
-166 29
28 -29 166
-167 28
-167 -29
-28 29 167
-168 -166
-168 -167
166 167 168
-169 28
-169 29
-28 -29 169
-170 165
-170 -168
-165 168 170
-171 -165
-171 168
165 -168 171
-172 -170
-172 -171
170 171 172
-173 -165
-173 -168
165 168 173
-174 -169
-174 -173
169 173 174
-175 -29
-175 30
29 -30 175
-176 29
-176 -30
-29 30 176
-177 -175
-177 -176
175 176 177
-178 29
-178 30
-29 -30 178
-179 174
-179 -177
-174 177 179
-180 -174
-180 177
174 -177 180
-181 -179
-181 -180
179 180 181
-182 -174
-182 -177
174 177 182
-183 -178
-183 -182
178 182 183
-184 -30
-184 31
30 -31 184
-185 30
-185 -31
-30 31 185
-186 -184
-186 -185
184 185 186
-187 30
-187 31
-30 -31 187
-188 183
-188 -186
-183 186 188
-189 -183
-189 186
183 -186 189
-190 -188
-190 -189
188 189 190
-191 -183
-191 -186
183 186 191
-192 -187
-192 -191
187 191 192
-193 -31
-193 32
31 -32 193
-194 31
-194 -32
-31 32 194
-195 -193
-195 -194
193 194 195
-196 31
-196 32
-31 -32 196
-197 192
-197 -195
-192 195 197
-198 -192
-198 195
192 -195 198
-199 -197
-199 -198
197 198 199
-200 -192
-200 -195
192 195 200
-201 -196
-201 -200
196 200 201
-202 -32
-202 33
32 -33 202
-203 32
-203 -33
-32 33 203
-204 -202
-204 -203
202 203 204
-205 32
-205 33
-32 -33 205
-206 201
-206 -204
-201 204 206
-207 -201
-207 204
201 -204 207
-208 -206
-208 -207
206 207 208
-209 -201
-209 -204
201 204 209
-210 -205
-210 -209
205 209 210
-211 -33
-211 34
33 -34 211
-212 33
-212 -34
-33 34 212
-213 -211
-213 -212
211 212 213
-214 33
-214 34
-33 -34 214
-215 210
-215 -213
-210 213 215
-216 -210
-216 213
210 -213 216
-217 -215
-217 -216
215 216 217
-218 -210
-218 -213
210 213 218
-219 -214
-219 -218
214 218 219
-220 -34
-220 35
34 -35 220
-221 34
-221 -35
-34 35 221
-222 -220
-222 -221
220 221 222
-223 34
-223 35
-34 -35 223
-224 219
-224 -222
-219 222 224
-225 -219
-225 222
219 -222 225
-226 -224
-226 -225
224 225 226
-227 -219
-227 -222
219 222 227
-228 -223
-228 -227
223 227 228
-229 -35
-229 36
35 -36 229
-230 35
-230 -36
-35 36 230
-231 -229
-231 -230
229 230 231
-232 35
-232 36
-35 -36 232
-233 228
-233 -231
-228 231 233
-234 -228
-234 231
228 -231 234
-235 -233
-235 -234
233 234 235
-236 -228
-236 -231
228 231 236
-237 -232
-237 -236
232 236 237
-238 -36
-238 37
36 -37 238
-239 36
-239 -37
-36 37 239
-240 -238
-240 -239
238 239 240
-241 36
-241 37
-36 -37 241
-242 237
-242 -240
-237 240 242
-243 -237
-243 240
237 -240 243
-244 -242
-244 -243
242 243 244
-245 -237
-245 -240
237 240 245
-246 -241
-246 -245
241 245 246
-247 16
-247 -64
-16 64 247
-248 -16
-248 18
16 -18 248
-249 -247
-249 -248
247 248 249
-250 16
-250 -73
-16 73 250
-251 -16
-251 19
16 -19 251
-252 -250
-252 -251
250 251 252
-253 16
-253 -82
-16 82 253
-254 -16
-254 20
16 -20 254
-255 -253
-255 -254
253 254 255
-256 16
-256 -91
-16 91 256
-257 -16
-257 21
16 -21 257
-258 -256
-258 -257
256 257 258
-259 16
-259 -100
-16 100 259
-260 -16
-260 22
16 -22 260
-261 -259
-261 -260
259 260 261
-262 16
-262 -109
-16 109 262
-263 -16
-263 23
16 -23 263
-264 -262
-264 -263
262 263 264
-265 16
-265 -118
-16 118 265
-266 -16
-266 24
16 -24 266
-267 -265
-267 -266
265 266 267
-268 16
-268 -127
-16 127 268
-269 -16
-269 25
16 -25 269
-270 -268
-270 -269
268 269 270
-271 16
-271 -136
-16 136 271
-272 -16
-272 26
16 -26 272
-273 -271
-273 -272
271 272 273
-274 16
-274 -145
-16 145 274
-275 -16
-275 27
16 -27 275
-276 -274
-276 -275
274 275 276
-277 16
-277 -154
-16 154 277
-278 -16
-278 28
16 -28 278
-279 -277
-279 -278
277 278 279
-280 16
-280 -163
-16 163 280
-281 -16
-281 29
16 -29 281
-282 -280
-282 -281
280 281 282
-283 16
-283 -172
-16 172 283
-284 -16
-284 30
16 -30 284
-285 -283
-285 -284
283 284 285
-286 16
-286 -181
-16 181 286
-287 -16
-287 31
16 -31 287
-288 -286
-288 -287
286 287 288
-289 16
-289 -190
-16 190 289
-290 -16
-290 32
16 -32 290
-291 -289
-291 -290
289 290 291
-292 16
-292 -199
-16 199 292
-293 -16
-293 33
16 -33 293
-294 -292
-294 -293
292 293 294
-295 16
-295 -208
-16 208 295
-296 -16
-296 34
16 -34 296
-297 -295
-297 -296
295 296 297
-298 16
-298 -217
-16 217 298
-299 -16
-299 35
16 -35 299
-300 -298
-300 -299
298 299 300
-301 16
-301 -226
-16 226 301
-302 -16
-302 36
16 -36 302
-303 -301
-303 -302
301 302 303
-304 16
-304 -235
-16 235 304
-305 -16
-305 37
16 -37 305
-306 -304
-306 -305
304 305 306
-307 16
-307 -244
-16 244 307
-308 1
-308 57
-1 -57 308
-309 -57
-309 58
57 -58 309
-310 -308
-310 -309
308 309 310
-311 2
-311 57
-2 -57 311
-312 -57
-312 -249
57 249 312
-313 -311
-313 -312
311 312 313
-314 3
-314 57
-3 -57 314
-315 -57
-315 -252
57 252 315
-316 -314
-316 -315
314 315 316
-317 4
-317 57
-4 -57 317
-318 -57
-318 -255
57 255 318
-319 -317
-319 -318
317 318 319
-320 5
-320 57
-5 -57 320
-321 -57
-321 -258
57 258 321
-322 -320
-322 -321
320 321 322
-323 6
-323 57
-6 -57 323
-324 -57
-324 -261
57 261 324
-325 -323
-325 -324
323 324 325
-326 7
-326 57
-7 -57 326
-327 -57
-327 -264
57 264 327
-328 -326
-328 -327
326 327 328
-329 8
-329 57
-8 -57 329
-330 -57
-330 -267
57 267 330
-331 -329
-331 -330
329 330 331
-332 9
-332 57
-9 -57 332
-333 -57
-333 -270
57 270 333
-334 -332
-334 -333
332 333 334
-335 10
-335 57
-10 -57 335
-336 -57
-336 -273
57 273 336
-337 -335
-337 -336
335 336 337
-338 11
-338 57
-11 -57 338
-339 -57
-339 -276
57 276 339
-340 -338
-340 -339
338 339 340
-341 12
-341 57
-12 -57 341
-342 -57
-342 -279
57 279 342
-343 -341
-343 -342
341 342 343
-344 13
-344 57
-13 -57 344
-345 -57
-345 -282
57 282 345
-346 -344
-346 -345
344 345 346
-347 14
-347 57
-14 -57 347
-348 -57
-348 -285
57 285 348
-349 -347
-349 -348
347 348 349
-350 15
-350 57
-15 -57 350
-351 -57
-351 -288
57 288 351
-352 -350
-352 -351
350 351 352
-353 -57
-353 -291
57 291 353
-354 -57
-354 -294
57 294 354
-355 -57
-355 -297
57 297 355
-356 -57
-356 -300
57 300 356
-357 -57
-357 -303
57 303 357
-358 -57
-358 -306
57 306 358
-359 -57
-359 307
57 -307 359
-360 -37
-360 246
37 -246 360
-361 16
-361 -360
-16 360 361
361
